Version identifier: 22.1.1.0 | 2022-11-28 | 9160aff4d
CPXPARAM_ClockType                               1
CPXPARAM_Read_DataCheck                          1
CPXPARAM_Threads                                 1
CPXPARAM_TimeLimit                               7200
CPXPARAM_MIP_Tolerances_AbsMIPGap                0
CPXPARAM_MIP_Tolerances_MIPGap                   0
CPXPARAM_MIP_Tolerances_Integrality              0
Tried aggregator 2 times.
MIP Presolve eliminated 1019 rows and 0 columns.
MIP Presolve modified 1828 coefficients.
Aggregator did 750 substitutions.
Reduced MIP has 2912 rows, 1875 columns, and 7527 nonzeros.
Reduced MIP has 1875 binaries, 0 generals, 0 SOSs, and 0 indicators.
Presolve time = 0.02 sec. (11.41 ticks)
Probing time = 0.00 sec. (2.32 ticks)
Tried aggregator 1 time.
Detecting symmetries...
MIP Presolve eliminated 258 rows and 15 columns.
Reduced MIP has 2654 rows, 1860 columns, and 6750 nonzeros.
Reduced MIP has 1860 binaries, 0 generals, 0 SOSs, and 0 indicators.
Presolve time = 0.01 sec. (8.19 ticks)
Probing time = 0.01 sec. (2.21 ticks)
Clique table members: 5122.
MIP emphasis: balance optimality and feasibility.
MIP search method: dynamic search.
Parallel mode: none, using 1 thread.
Root relaxation solution time = 0.09 sec. (66.55 ticks)

        Nodes                                         Cuts/
   Node  Left     Objective  IInf  Best Integer    Best Bound    ItCnt     Gap

      0     0      250.0000   730                    250.0000     1278         
      0     0      250.0000   715                   Cuts: 211     1659         
      0     0      250.0000   690                   Cuts: 179     2124         
      0     0      250.0000   718               ZeroHalf: 185     2461         
      0     0      250.0000   859               ZeroHalf: 189     2888         
      0     2      250.0000   606                    250.0000     3028         
Elapsed time = 1.65 sec. (1270.93 ticks, tree = 0.01 MB, solutions = 0)
     10    10    infeasible                          250.0000     6506         
     22    16      250.0000   580                    250.0000     9897         
*    25     1      integral     0      250.0000      250.0000    10594    0.00%

Zero-half cuts applied:  26

Root node processing (before b&c):
  Real time             =    1.64 sec. (1263.85 ticks)
Sequential b&c:
  Real time             =    0.68 sec. (573.24 ticks)
                          ------------
Total (root+branch&cut) =    2.32 sec. (1837.10 ticks)
Solution is feasible.

---------------------
@@@ MIP_optimal
>>> Benchmark flat125-1.cnf k 2 OPT 250 TimeCost 2.68780517578125 TimeSolve 2.3450639247894287 TimeRead 0.0037119388580322266 TimeTrans 0.33902931213378906
